(declare-const b Real)
(declare-const c Real)
(declare-const a Real)
(assert (= (* (* a b) c) 1))
(assert (and (< 0 a) (and (< 0 b) (< 0 c))))
(assert (not (>= (+ (+ (/ 1 (* (^ a 3) (+ b c))) (/ 1 (* (^ b 3) (+ c a)))) (/ 1 (* (^ c 3) (+ a b)))) (/ 3 2))))
(check-sat)
(get-model)
(exit)